NAME: line_10_2
TYPE: TSP
COMMENT: line_10_2
DIMENSION: 10
EDGE_WEIGHT_TYPE: EUC_2D
NODE_COORD_SECTION
1 0.0 64.0
2 0.0 86.0
3 0.0 69.0
4 0.0 78.0
5 0.0 46.0
6 0.0 91.0
7 0.0 75.0
8 0.0 33.0
9 0.0 7.0
10 0.0 51.0
